unknown
(:reason-unknown "(incomplete quantifiers)")
(((ControlFlow 0 0) 17069))
(((ControlFlow 0 17069) 14968))
(((ControlFlow 0 14968) 14986))
(((ControlFlow 0 14986) 15006))
(((ControlFlow 0 15006) 15024))
(((ControlFlow 0 15024) 15044))
(((ControlFlow 0 15044) (- 17410)))
unsat
unsat
unknown
(:reason-unknown "(incomplete quantifiers)")
(((ControlFlow 0 0) 17493))
(((ControlFlow 0 17493) 15348))
(((ControlFlow 0 15348) 15368))
(((ControlFlow 0 15368) 15396))
(((ControlFlow 0 15396) (- 17603)))
unsat
